nNurses = 57;
nHours = 32;
minHours = 7;
maxHours = 17;
maxConsec = 8;
maxPresence = 10;
demand = [28, 31, 28, 26, 22, 27, 26, 30, 26, 29, 29, 27, 31, 30, 25, 23, 18, 23, 19, 22, 18, 18, 20, 21, 17, 17, 21, 21, 26, 22, 22, 24];
